(set-logic QF_S)
(declare-fun var0 () String)
(assert (RegexIn var0 (RegexConcat (RegexStar (RegexPlus (Str2Reg "00"))) (RegexConcat (RegexStar (RegexPlus (Str2Reg "11"))) (RegexConcat (RegexStar (RegexPlus (Str2Reg "2"))) (RegexConcat (RegexStar (RegexUnion (Str2Reg "33") (Str2Reg "44"))) (RegexConcat (RegexStar (RegexStar (Str2Reg "5"))) (RegexConcat (RegexPlus (RegexUnion (Str2Reg "6") (Str2Reg "777"))) (RegexConcat (RegexUnion (RegexUnion (Str2Reg "888") (Str2Reg "999")) (RegexUnion (Str2Reg "aaa") (Str2Reg "b"))) (RegexConcat (RegexStar (RegexPlus (Str2Reg "cc"))) (RegexConcat (RegexStar (RegexUnion (Str2Reg "ddd") (Str2Reg "eee"))) (RegexConcat (RegexUnion (RegexPlus (Str2Reg "ff")) (RegexPlus (Str2Reg "gg"))) (RegexConcat (RegexPlus (RegexStar (Str2Reg "hhh"))) (RegexConcat (RegexStar (RegexUnion (Str2Reg "iii") (Str2Reg "jj"))) (RegexConcat (RegexUnion (RegexUnion (Str2Reg "kk") (Str2Reg "ll")) (RegexUnion (Str2Reg "mm") (Str2Reg "nn"))) (RegexConcat (RegexStar (RegexStar (Str2Reg "o"))) (RegexConcat (RegexPlus (RegexUnion (Str2Reg "ppp") (Str2Reg "qqq"))) (RegexConcat (RegexStar (RegexStar (Str2Reg "rr"))) (RegexConcat (RegexUnion (RegexUnion (Str2Reg "sss") (Str2Reg "t")) (RegexUnion (Str2Reg "u") (Str2Reg "vv"))) (RegexConcat (RegexPlus (RegexUnion (Str2Reg "www") (Str2Reg "xxx"))) (RegexConcat (RegexStar (RegexUnion (Str2Reg "yyy") (Str2Reg "zz"))) (RegexConcat (RegexPlus (RegexStar (Str2Reg "A"))) (RegexConcat (RegexUnion (RegexPlus (Str2Reg "BBB")) (RegexPlus (Str2Reg "CC"))) (RegexConcat (RegexUnion (RegexStar (Str2Reg "DD")) (RegexStar (Str2Reg "EE"))) (RegexConcat (RegexPlus (RegexStar (Str2Reg "FFF"))) (RegexConcat (RegexUnion (RegexUnion (Str2Reg "GG") (Str2Reg "HH")) (RegexUnion (Str2Reg "III") (Str2Reg "JJJ"))) (RegexConcat (RegexStar (RegexPlus (Str2Reg "K"))) (RegexConcat (RegexUnion (RegexStar (Str2Reg "L")) (RegexStar (Str2Reg "MM"))) (RegexConcat (RegexPlus (RegexPlus (Str2Reg "N"))) (RegexConcat (RegexPlus (RegexPlus (Str2Reg "O"))) (RegexConcat (RegexStar (RegexPlus (Str2Reg "PPP"))) (RegexConcat (RegexStar (RegexUnion (Str2Reg "QQ") (Str2Reg "RRR"))) (RegexConcat (RegexPlus (RegexStar (Str2Reg "S"))) (RegexConcat (RegexUnion (RegexStar (Str2Reg "T")) (RegexStar (Str2Reg "UUU"))) (RegexConcat (RegexPlus (RegexPlus (Str2Reg "VV"))) (RegexConcat (RegexUnion (RegexUnion (Str2Reg "W") (Str2Reg "XX")) (RegexUnion (Str2Reg "YY") (Str2Reg "Z"))) (RegexConcat (RegexPlus (RegexPlus (Str2Reg "!"))) (RegexConcat (RegexUnion (RegexPlus (Str2Reg "\"")) (RegexPlus (Str2Reg "###"))) (RegexConcat (RegexStar (RegexUnion (Str2Reg "$") (Str2Reg "%%"))) (RegexConcat (RegexUnion (RegexUnion (Str2Reg "&&") (Str2Reg "''")) (RegexUnion (Str2Reg "(") (Str2Reg ")))"))) (RegexConcat (RegexUnion (RegexPlus (Str2Reg "**")) (RegexPlus (Str2Reg "+++"))) (RegexConcat (RegexStar (RegexUnion (Str2Reg ",,") (Str2Reg "--"))) (RegexConcat (RegexUnion (RegexPlus (Str2Reg "..")) (RegexPlus (Str2Reg "//"))) (RegexConcat (RegexPlus (RegexUnion (Str2Reg ":::") (Str2Reg ";;"))) (RegexConcat (RegexStar (RegexUnion (Str2Reg "<") (Str2Reg "=="))) (RegexConcat (RegexStar (RegexUnion (Str2Reg ">>>") (Str2Reg "?"))) (RegexConcat (RegexUnion (RegexUnion (Str2Reg "@@@") (Str2Reg "[[")) (RegexUnion (Str2Reg "\\\\") (Str2Reg "]]]"))) (RegexConcat (RegexUnion (RegexStar (Str2Reg "^^^")) (RegexStar (Str2Reg "___"))) (RegexConcat (RegexUnion (RegexPlus (Str2Reg "`")) (RegexPlus (Str2Reg "{{"))) (RegexConcat (RegexStar (RegexStar (Str2Reg "||"))) (RegexConcat (RegexUnion (RegexStar (Str2Reg "}")) (RegexStar (Str2Reg "~~~"))) (RegexConcat (RegexPlus (RegexUnion (Str2Reg "00") (Str2Reg "11"))) (RegexConcat (RegexPlus (RegexUnion (Str2Reg "2") (Str2Reg "33"))) (RegexConcat (RegexStar (RegexPlus (Str2Reg "44"))) (RegexConcat (RegexUnion (RegexUnion (Str2Reg "5") (Str2Reg "6")) (RegexUnion (Str2Reg "7") (Str2Reg "8"))) (RegexConcat (RegexPlus (RegexPlus (Str2Reg "9"))) (RegexConcat (RegexStar (RegexStar (Str2Reg "aaa"))) (RegexConcat (RegexStar (RegexStar (Str2Reg "b"))) (RegexConcat (RegexStar (RegexPlus (Str2Reg "ccc"))) (RegexConcat (RegexPlus (RegexPlus (Str2Reg "d"))) (RegexConcat (RegexPlus (RegexPlus (Str2Reg "e"))) (RegexConcat (RegexStar (RegexUnion (Str2Reg "ff") (Str2Reg "ggg"))) (RegexConcat (RegexUnion (RegexUnion (Str2Reg "hh") (Str2Reg "ii")) (RegexUnion (Str2Reg "jjj") (Str2Reg "kkk"))) (RegexConcat (RegexUnion (RegexUnion (Str2Reg "lll") (Str2Reg "mm")) (RegexUnion (Str2Reg "nn") (Str2Reg "oo"))) (RegexConcat (RegexUnion (RegexPlus (Str2Reg "p")) (RegexPlus (Str2Reg "qq"))) (RegexConcat (RegexPlus (RegexUnion (Str2Reg "r") (Str2Reg "sss"))) (RegexConcat (RegexUnion (RegexStar (Str2Reg "ttt")) (RegexStar (Str2Reg "uuu"))) (RegexConcat (RegexUnion (RegexStar (Str2Reg "v")) (RegexStar (Str2Reg "ww"))) (RegexConcat (RegexPlus (RegexPlus (Str2Reg "x"))) (RegexConcat (RegexStar (RegexPlus (Str2Reg "yyy"))) (RegexConcat (RegexPlus (RegexStar (Str2Reg "zzz"))) (RegexConcat (RegexUnion (RegexStar (Str2Reg "AAA")) (RegexStar (Str2Reg "B"))) (RegexConcat (RegexPlus (RegexPlus (Str2Reg "CC"))) (RegexConcat (RegexPlus (RegexStar (Str2Reg "D"))) (RegexConcat (RegexStar (RegexStar (Str2Reg "EE"))) (RegexConcat (RegexUnion (RegexPlus (Str2Reg "FFF")) (RegexPlus (Str2Reg "GG"))) (RegexConcat (RegexUnion (RegexUnion (Str2Reg "H") (Str2Reg "I")) (RegexUnion (Str2Reg "JJ") (Str2Reg "KK"))) (RegexConcat (RegexStar (RegexPlus (Str2Reg "L"))) (RegexConcat (RegexStar (RegexStar (Str2Reg "MM"))) (RegexConcat (RegexUnion (RegexPlus (Str2Reg "N")) (RegexPlus (Str2Reg "OOO"))) (RegexConcat (RegexStar (RegexUnion (Str2Reg "PP") (Str2Reg "Q"))) (RegexConcat (RegexUnion (RegexUnion (Str2Reg "RRR") (Str2Reg "S")) (RegexUnion (Str2Reg "TT") (Str2Reg "UU"))) (RegexConcat (RegexUnion (RegexPlus (Str2Reg "VV")) (RegexPlus (Str2Reg "WWW"))) (RegexConcat (RegexUnion (RegexUnion (Str2Reg "XX") (Str2Reg "Y")) (RegexUnion (Str2Reg "Z") (Str2Reg "!!!"))) (RegexConcat (RegexPlus (RegexStar (Str2Reg "\"\"\""))) (RegexConcat (RegexUnion (RegexStar (Str2Reg "###")) (RegexStar (Str2Reg "$"))) (RegexConcat (RegexUnion (RegexUnion (Str2Reg "%%") (Str2Reg "&&")) (RegexUnion (Str2Reg "'''") (Str2Reg "((("))) (RegexConcat (RegexStar (RegexPlus (Str2Reg ")"))) (RegexConcat (RegexStar (RegexStar (Str2Reg "**"))) (RegexConcat (RegexUnion (RegexUnion (Str2Reg "++") (Str2Reg ",,,")) (RegexUnion (Str2Reg "--") (Str2Reg "."))) (RegexConcat (RegexStar (RegexUnion (Str2Reg "///") (Str2Reg "::"))) (RegexConcat (RegexPlus (RegexPlus (Str2Reg ";"))) (RegexConcat (RegexPlus (RegexPlus (Str2Reg "<"))) (RegexConcat (RegexStar (RegexUnion (Str2Reg "===") (Str2Reg ">"))) (RegexConcat (RegexUnion (RegexStar (Str2Reg "??")) (RegexStar (Str2Reg "@@"))) (RegexConcat (RegexPlus (RegexPlus (Str2Reg "[[["))) (RegexConcat (RegexUnion (RegexPlus (Str2Reg "\\\\")) (RegexPlus (Str2Reg "]]"))) (RegexConcat (RegexUnion (RegexStar (Str2Reg "^")) (RegexStar (Str2Reg "__"))) (RegexConcat (RegexPlus (RegexUnion (Str2Reg "```") (Str2Reg "{{"))) (RegexConcat (RegexPlus (RegexUnion (Str2Reg "|||") (Str2Reg "}}"))) (RegexConcat (RegexStar (RegexPlus (Str2Reg "~"))) (RegexConcat (RegexUnion (RegexStar (Str2Reg "000")) (RegexStar (Str2Reg "1"))) (RegexConcat (RegexStar (RegexStar (Str2Reg "2"))) (RegexConcat (RegexPlus (RegexPlus (Str2Reg "3"))) (RegexConcat (RegexUnion (RegexUnion (Str2Reg "44") (Str2Reg "5")) (RegexUnion (Str2Reg "666") (Str2Reg "7"))) (RegexConcat (RegexPlus (RegexUnion (Str2Reg "88") (Str2Reg "99"))) (RegexConcat (RegexUnion (RegexStar (Str2Reg "aa")) (RegexStar (Str2Reg "bb"))) (RegexConcat (RegexPlus (RegexPlus (Str2Reg "ccc"))) (RegexConcat (RegexPlus (RegexPlus (Str2Reg "ddd"))) (RegexConcat (RegexStar (RegexPlus (Str2Reg "e"))) (RegexConcat (RegexPlus (RegexPlus (Str2Reg "fff"))) (RegexConcat (RegexStar (RegexUnion (Str2Reg "gg") (Str2Reg "hh"))) (RegexConcat (RegexUnion (RegexPlus (Str2Reg "i")) (RegexPlus (Str2Reg "jjj"))) (RegexConcat (RegexPlus (RegexUnion (Str2Reg "k") (Str2Reg "l"))) (RegexConcat (RegexPlus (RegexUnion (Str2Reg "mm") (Str2Reg "n"))) (RegexConcat (RegexPlus (RegexStar (Str2Reg "o"))) (RegexConcat (RegexStar (RegexStar (Str2Reg "p"))) (RegexConcat (RegexUnion (RegexUnion (Str2Reg "q") (Str2Reg "rrr")) (RegexUnion (Str2Reg "ss") (Str2Reg "t"))) (RegexConcat (RegexPlus (RegexUnion (Str2Reg "uu") (Str2Reg "vvv"))) (RegexConcat (RegexStar (RegexStar (Str2Reg "w"))) (RegexConcat (RegexUnion (RegexStar (Str2Reg "xx")) (RegexStar (Str2Reg "yyy"))) (RegexConcat (RegexStar (RegexUnion (Str2Reg "z") (Str2Reg "A"))) (RegexConcat (RegexPlus (RegexUnion (Str2Reg "B") (Str2Reg "CC"))) (RegexConcat (RegexUnion (RegexStar (Str2Reg "D")) (RegexStar (Str2Reg "EE"))) (RegexConcat (RegexStar (RegexStar (Str2Reg "FF"))) (RegexConcat (RegexPlus (RegexPlus (Str2Reg "G"))) (RegexConcat (RegexPlus (RegexPlus (Str2Reg "HHH"))) (RegexConcat (RegexUnion (RegexUnion (Str2Reg "II") (Str2Reg "J")) (RegexUnion (Str2Reg "KK") (Str2Reg "LLL"))) (RegexConcat (RegexPlus (RegexStar (Str2Reg "MM"))) (RegexConcat (RegexPlus (RegexPlus (Str2Reg "N"))) (RegexConcat (RegexPlus (RegexUnion (Str2Reg "O") (Str2Reg "PP"))) (RegexConcat (RegexPlus (RegexPlus (Str2Reg "QQ"))) (RegexConcat (RegexStar (RegexPlus (Str2Reg "R"))) (RegexConcat (RegexUnion (RegexStar (Str2Reg "SS")) (RegexStar (Str2Reg "TT"))) (RegexConcat (RegexUnion (RegexStar (Str2Reg "UU")) (RegexStar (Str2Reg "VV"))) (RegexPlus (RegexUnion (Str2Reg "WWW") (Str2Reg "XXX"))))))))))))))))))))))))))))))))))))))))))))))))))))))))))))))))))))))))))))))))))))))))))))))))))))))))))))))))))))))))))))))))))))))))))
(check-sat)